submitit INFO (2023-04-30 19:21:35,930) - Starting with JobEnvironment(job_id=27532, hostname=cpunode2, local_rank=4(5), node=0(1), global_rank=4(5))
submitit INFO (2023-04-30 19:21:35,930) - Loading pickle: /h/30/pashootan/Matrix-Mult-CP/src/../logs/2x2x2_6_Apr30_19:21:33/27532_submitted.pkl
 ! --------------------------------------------------- CP Optimizer 22.1.1.0 --
 ! Satisfiability problem - 72 variables, 117 constraints
 ! TimeLimit            = 7200
 ! Workers              = 8
 ! LogPeriod            = 10000000
 ! RandomSeed           = 6568
 ! Initial process time : 0.00s (0.00s extraction + 0.00s propagation)
 !  . Log search space  : 107.1 (before), 107.1 (after)
 !  . Memory usage      : 495.1 kB (before), 495.1 kB (after)
 ! Using parallel search with 8 workers.
 ! ----------------------------------------------------------------------------
 !               Branches  Non-fixed    W       Branch decision
                   10000k          6    2   F    -1 != V4_3
                   10000k          6    5         1 != W5_1
                   10000k          6    6   F     0 != W5_1
                   10000k          6    1         0 != V3_1
                   10000k          6    4   F    -1 != V0_3
                   10000k          6    3   F     0 != W2_2
                   10000k          6    7        -1 != V5_0
                   10000k          6    8         1  = W2_2
                   20000k          6    2   F     0  = V4_2
                   20000k          6    6        -1 != V2_0
                   20000k          6    5   F    -1 != V2_3
                   20000k          6    4   F     0 != W4_2
                   20000k          6    1   F    -1  = W2_1
                   20000k          6    7        -1 != V2_0
                   20000k          7    8   F     0  = V0_2
                   20000k          8    3   F    -1  = W3_3
                   30000k          6    2   F    -1 != U1_1
                   30000k          6    6   F    -1  = V3_2
                   30000k          6    5   F    -1  = V4_3
                   30000k          6    4         1  = V0_1
 ! Time = 279.29s, Average fail depth = 18, Memory usage = 145.2 MB
 !               Branches  Non-fixed    W       Branch decision
                   30000k          6    1   F     1  = V0_2
                   30000k          8    7         0  = V3_0
                   30000k          7    8         1 != V3_0
                   30000k          7    3   F     1  = V3_2
 ! ----------------------------------------------------------------------------
 ! Search completed, model has no solution.
 ! ----------------------------------------------------------------------------
 ! Number of branches     : 307505115
 ! Number of fails        : 151719732
 ! Total memory usage     : 190.8 MB (190.7 MB CP Optimizer + 0.0 MB Concert)
 ! Time spent in solve    : 358.67s (358.67s engine + 0.00s extraction)
 ! Search speed (br. / s) : 857372.2
 ! ----------------------------------------------------------------------------
Infeasible
Saving stats to: /h/30/pashootan/Matrix-Mult-CP/logs/2x2x2_6_Apr30_19:21:33/27532_4_stats.csv
submitit INFO (2023-04-30 19:27:34,987) - Job completed successfully
